p wcnf 120 1500
3 -111 112 0
2 -110 120 0
2 -109 -116 0
3 -109 111 0
5 -108 -115 0
9 -107 114 0
10 -106 -118 0
3 -105 119 0
3 -103 -106 0
2 -103 110 0
1 -102 113 0
4 -101 -120 0
8 -101 -108 0
9 -101 111 0
7 -99 -119 0
6 -99 -115 0
3 -99 105 0
8 -99 113 0
1 -99 114 0
4 -99 115 0
4 -99 116 0
5 -99 118 0
6 -98 -104 0
3 -98 100 0
9 -97 -115 0
6 -97 -107 0
5 -97 103 0
3 -96 -107 0
9 -95 112 0
9 -95 117 0
7 -94 -111 0
2 -94 -108 0
10 -94 -97 0
8 -94 107 0
4 -93 -120 0
5 -93 -111 0
7 -93 -106 0
4 -93 101 0
7 -93 110 0
9 -92 101 0
5 -91 112 0
7 -91 115 0
3 -90 103 0
2 -90 113 0
6 -89 -117 0
9 -89 -106 0
8 -88 -108 0
7 -88 89 0
7 -88 109 0
8 -88 115 0
10 -87 -105 0
1 -87 -98 0
3 -87 -90 0
6 -87 103 0
4 -87 104 0
1 -86 -115 0
2 -86 89 0
7 -84 -92 0
3 -84 85 0
10 -84 90 0
6 -84 91 0
9 -84 95 0
2 -83 -120 0
6 -83 -96 0
7 -83 91 0
5 -83 100 0
1 -82 -118 0
4 -82 -109 0
7 -82 -86 0
7 -82 -84 0
3 -82 89 0
2 -82 99 0
4 -81 -101 0
5 -81 -91 0
3 -81 110 0
9 -80 -114 0
4 -80 -99 0
10 -80 -84 0
6 -80 87 0
10 -80 100 0
8 -80 106 0
6 -79 -117 0
1 -79 -115 0
9 -79 -107 0
2 -79 -97 0
4 -79 111 0
10 -78 79 0
3 -78 83 0
1 -78 103 0
3 -77 -111 0
2 -77 -108 0
7 -77 103 0
2 -77 117 0
3 -76 -118 0
3 -76 -111 0
8 -76 -87 0
7 -76 -80 0
3 -76 115 0
2 -75 -104 0
4 -75 -100 0
9 -75 -94 0
3 -75 -76 0
5 -75 89 0
3 -75 111 0
7 -74 -93 0
7 -74 81 0
2 -74 98 0
10 -73 76 0
7 -73 77 0
7 -73 84 0
10 -73 112 0
5 -73 119 0
3 -72 91 0
1 -71 104 0
4 -70 -88 0
4 -70 72 0
4 -70 78 0
4 -70 102 0
6 -70 105 0
4 -69 -95 0
6 -69 -90 0
7 -69 73 0
1 -69 80 0
7 -69 110 0
9 -68 -110 0
3 -68 -100 0
5 -68 76 0
6 -68 91 0
5 -68 100 0
6 -67 -111 0
9 -67 -80 0
4 -67 -75 0
8 -66 -116 0
4 -66 -107 0
6 -66 -98 0
5 -66 -86 0
10 -66 89 0
7 -66 100 0
5 -66 116 0
7 -65 -101 0
4 -65 -87 0
5 -65 67 0
2 -65 82 0
7 -65 110 0
5 -64 -120 0
5 -64 -110 0
10 -64 -95 0
8 -64 -67 0
9 -64 84 0
5 -64 105 0
3 -64 106 0
5 -64 108 0
2 -64 115 0
3 -63 -113 0
2 -63 -99 0
1 -63 -92 0
5 -63 -76 0
6 -63 76 0
6 -63 118 0
9 -62 -115 0
2 -62 -106 0
4 -62 -88 0
2 -62 -81 0
9 -62 65 0
7 -62 71 0
7 -62 75 0
5 -62 80 0
7 -61 -108 0
5 -61 -96 0
9 -61 -90 0
4 -61 -88 0
8 -61 -74 0
4 -61 -73 0
5 -61 69 0
5 -61 76 0
9 -61 87 0
9 -60 -101 0
5 -60 68 0
7 -60 120 0
8 -59 -111 0
9 -59 61 0
9 -59 67 0
3 -59 101 0
1 -59 105 0
2 -59 112 0
4 -58 -111 0
1 -58 -108 0
5 -58 -85 0
9 -58 61 0
6 -58 66 0
4 -58 80 0
1 -58 83 0
10 -58 91 0
5 -58 107 0
10 -58 118 0
7 -57 63 0
3 -57 76 0
4 -57 85 0
4 -57 93 0
6 -57 118 0
4 -56 -97 0
6 -56 -90 0
4 -56 -65 0
7 -56 -60 0
1 -56 -59 0
8 -56 92 0
6 -56 95 0
10 -55 -120 0
3 -55 -109 0
3 -55 -84 0
8 -55 -79 0
2 -55 116 0
1 -54 -116 0
10 -54 -114 0
2 -54 -55 0
2 -54 55 0
4 -54 61 0
2 -54 70 0
6 -53 -111 0
3 -53 -103 0
8 -53 -88 0
9 -53 70 0
3 -53 79 0
7 -53 92 0
4 -53 93 0
3 -53 120 0
4 -52 -66 0
6 -52 -53 0
6 -52 65 0
7 -52 116 0
2 -51 -101 0
9 -51 -99 0
3 -51 -96 0
6 -51 -84 0
6 -51 -69 0
3 -51 65 0
4 -51 70 0
2 -51 89 0
3 -51 93 0
5 -51 101 0
3 -51 116 0
10 -51 120 0
6 -50 -102 0
3 -50 -101 0
9 -50 -74 0
7 -50 -62 0
4 -50 54 0
3 -50 73 0
8 -50 76 0
10 -50 99 0
5 -50 114 0
5 -50 115 0
9 -49 -87 0
7 -49 -57 0
3 -49 68 0
3 -49 79 0
9 -49 80 0
6 -48 53 0
8 -48 54 0
6 -48 58 0
2 -48 72 0
10 -48 89 0
5 -48 101 0
4 -48 108 0
5 -48 109 0
1 -48 115 0
7 -47 -112 0
8 -47 -109 0
2 -47 -108 0
9 -47 -83 0
3 -47 -66 0
4 -47 48 0
9 -47 67 0
8 -47 96 0
7 -47 111 0
8 -46 -104 0
4 -46 -61 0
10 -46 82 0
1 -46 84 0
2 -46 117 0
9 -45 -117 0
5 -45 -103 0
7 -45 -95 0
8 -45 -91 0
3 -45 -81 0
8 -45 -67 0
1 -45 -55 0
2 -45 -53 0
4 -45 50 0
8 -45 52 0
7 -45 68 0
5 -45 81 0
8 -45 83 0
2 -45 88 0
8 -44 -110 0
3 -44 -93 0
2 -44 -60 0
5 -44 83 0
10 -44 94 0
3 -44 99 0
4 -44 100 0
3 -44 103 0
6 -43 -45 0
3 -43 48 0
1 -43 51 0
3 -43 62 0
10 -43 88 0
5 -43 120 0
3 -42 -119 0
10 -42 -110 0
6 -42 -96 0
2 -42 -77 0
5 -42 47 0
2 -42 73 0
9 -42 74 0
7 -41 -58 0
9 -41 84 0
9 -40 -81 0
8 -40 54 0
3 -40 58 0
8 -40 77 0
5 -40 81 0
7 -40 91 0
5 -40 95 0
6 -39 -89 0
5 -39 -72 0
7 -39 -46 0
8 -39 -45 0
9 -39 58 0
7 -39 60 0
1 -39 72 0
3 -38 -104 0
9 -38 -78 0
6 -38 -60 0
5 -38 40 0
9 -38 44 0
8 -38 54 0
5 -38 85 0
4 -38 97 0
10 -38 111 0
4 -38 112 0
8 -37 -105 0
2 -37 -101 0
8 -37 -84 0
10 -37 -39 0
10 -37 41 0
5 -37 51 0
9 -37 112 0
9 -36 -89 0
3 -36 -58 0
2 -36 39 0
7 -36 57 0
7 -36 75 0
8 -36 91 0
2 -36 111 0
3 -36 118 0
3 -35 -112 0
8 -35 -111 0
1 -35 -103 0
2 -35 -92 0
5 -35 -70 0
1 -35 -69 0
4 -35 -68 0
4 -35 -66 0
7 -35 -65 0
8 -35 -37 0
4 -35 41 0
5 -35 58 0
3 -35 88 0
6 -34 -109 0
4 -34 -101 0
6 -34 -43 0
5 -34 44 0
5 -34 53 0
5 -34 58 0
5 -34 69 0
5 -34 71 0
9 -34 90 0
4 -34 91 0
4 -34 106 0
2 -33 -82 0
5 -33 -78 0
10 -33 -68 0
8 -33 -64 0
3 -33 65 0
2 -33 67 0
2 -33 69 0
5 -33 78 0
9 -33 90 0
2 -33 105 0
6 -33 120 0
4 -32 -113 0
2 -32 -71 0
9 -32 40 0
7 -32 47 0
8 -32 52 0
8 -32 62 0
10 -32 95 0
2 -32 104 0
10 -32 107 0
6 -31 -105 0
6 -31 -85 0
6 -31 -69 0
1 -31 -60 0
10 -31 -41 0
1 -31 40 0
5 -31 54 0
5 -31 59 0
9 -31 76 0
7 -31 78 0
8 -31 91 0
10 -30 -111 0
2 -30 -102 0
7 -30 -100 0
8 -30 -84 0
4 -30 -74 0
8 -30 -69 0
8 -30 -45 0
7 -30 42 0
7 -30 54 0
9 -30 90 0
3 -30 120 0
9 -29 -102 0
1 -29 34 0
2 -29 41 0
7 -29 49 0
8 -29 88 0
9 -29 89 0
7 -29 94 0
9 -29 118 0
9 -28 -113 0
3 -28 -112 0
5 -28 -67 0
5 -28 -65 0
3 -28 -46 0
5 -28 -36 0
5 -28 32 0
7 -28 36 0
8 -28 51 0
4 -28 73 0
4 -28 87 0
6 -27 -99 0
4 -27 -80 0
5 -27 -61 0
3 -27 -54 0
2 -27 30 0
8 -27 87 0
1 -27 94 0
9 -26 -88 0
5 -26 -84 0
7 -26 -82 0
8 -26 -57 0
7 -26 -49 0
6 -26 60 0
9 -26 63 0
9 -26 84 0
3 -25 -96 0
7 -25 -77 0
8 -25 -41 0
9 -25 -40 0
6 -25 28 0
6 -25 45 0
2 -25 88 0
1 -24 -119 0
1 -24 -81 0
4 -24 -28 0
5 -24 32 0
5 -24 40 0
10 -24 84 0
4 -24 100 0
8 -24 112 0
4 -23 -93 0
9 -23 -90 0
1 -23 -60 0
8 -23 -54 0
2 -23 -46 0
2 -23 -28 0
7 -23 -24 0
2 -23 27 0
10 -23 29 0
2 -23 46 0
8 -23 49 0
8 -23 97 0
8 -23 101 0
5 -23 104 0
7 -23 111 0
7 -22 -105 0
7 -22 -101 0
4 -22 -74 0
5 -22 30 0
6 -22 44 0
9 -22 55 0
1 -22 62 0
7 -22 85 0
9 -21 -120 0
1 -21 -109 0
10 -21 -98 0
4 -21 -84 0
5 -21 26 0
9 -21 35 0
7 -21 49 0
3 -21 52 0
4 -21 61 0
5 -21 76 0
3 -21 93 0
2 -20 -107 0
6 -20 -81 0
4 -20 -67 0
7 -20 -58 0
8 -20 -57 0
4 -20 -54 0
8 -20 -35 0
6 -20 43 0
2 -20 46 0
7 -20 58 0
10 -20 63 0
8 -20 76 0
4 -20 87 0
7 -20 102 0
1 -20 111 0
8 -19 -116 0
3 -19 -109 0
9 -19 -89 0
8 -19 -43 0
8 -19 -38 0
8 -19 64 0
9 -19 68 0
8 -19 82 0
2 -19 103 0
4 -19 105 0
7 -19 118 0
8 -18 -98 0
6 -18 -75 0
10 -18 -73 0
3 -18 -70 0
8 -18 44 0
2 -18 46 0
9 -18 57 0
2 -18 76 0
8 -18 82 0
7 -18 96 0
5 -18 116 0
7 -17 -114 0
3 -17 -110 0
6 -17 -108 0
3 -17 -87 0
3 -17 -57 0
3 -17 -43 0
6 -17 20 0
9 -17 50 0
3 -17 84 0
4 -16 -115 0
1 -16 -102 0
2 -16 -93 0
3 -16 -56 0
8 -16 -53 0
9 -16 -47 0
1 -16 -45 0
6 -16 -17 0
1 -16 23 0
4 -16 67 0
3 -16 89 0
8 -16 117 0
9 -15 -110 0
3 -15 -90 0
2 -15 -83 0
7 -15 -74 0
4 -15 -46 0
9 -15 -39 0
8 -15 22 0
2 -15 28 0
6 -15 35 0
3 -15 44 0
7 -15 60 0
8 -14 -109 0
7 -14 -71 0
10 -14 -42 0
1 -14 -41 0
10 -14 -33 0
6 -14 34 0
9 -14 55 0
3 -14 59 0
9 -14 93 0
9 -14 113 0
4 -13 -112 0
2 -13 -87 0
8 -13 -70 0
3 -13 -65 0
2 -13 29 0
4 -13 34 0
4 -13 82 0
5 -13 91 0
6 -13 106 0
2 -12 -118 0
4 -12 -113 0
8 -12 -110 0
3 -12 -89 0
10 -12 -80 0
2 -12 -60 0
2 -12 -27 0
8 -12 -14 0
2 -12 30 0
7 -12 61 0
9 -12 63 0
8 -12 70 0
5 -12 71 0
7 -12 73 0
8 -12 75 0
5 -12 81 0
6 -12 106 0
4 -11 -92 0
4 -11 -57 0
8 -11 -55 0
3 -11 -18 0
3 -11 -17 0
2 -11 14 0
4 -11 21 0
1 -11 44 0
5 -11 96 0
6 -11 99 0
4 -11 114 0
7 -11 115 0
10 -10 -115 0
9 -10 -111 0
8 -10 -108 0
4 -10 -93 0
7 -10 -79 0
10 -10 -35 0
3 -10 12 0
8 -10 15 0
2 -10 22 0
10 -10 40 0
9 -10 64 0
8 -10 75 0
9 -10 81 0
7 -10 84 0
3 -10 97 0
6 -10 100 0
5 -10 109 0
7 -10 118 0
2 -9 -107 0
8 -9 -103 0
1 -9 -87 0
9 -9 -76 0
1 -9 -58 0
4 -9 32 0
2 -9 94 0
5 -9 100 0
4 -9 109 0
5 -8 -116 0
9 -8 -97 0
7 -8 -68 0
3 -8 -30 0
9 -8 57 0
6 -8 72 0
1 -8 83 0
3 -8 87 0
3 -8 104 0
10 -8 108 0
5 -8 111 0
10 -7 -116 0
2 -7 -74 0
5 -7 -72 0
8 -7 -66 0
9 -7 -60 0
4 -7 -32 0
5 -7 -18 0
2 -7 -15 0
9 -7 -10 0
9 -7 24 0
8 -7 35 0
1 -7 39 0
7 -7 49 0
9 -7 90 0
10 -7 102 0
8 -7 120 0
3 -6 -91 0
1 -6 -83 0
2 -6 -43 0
5 -6 -40 0
5 -6 -12 0
2 -6 -10 0
2 -6 10 0
7 -6 91 0
10 -5 -86 0
7 -5 -69 0
7 -5 -55 0
2 -5 -47 0
9 -5 -28 0
7 -5 -10 0
7 -5 33 0
9 -5 46 0
8 -5 59 0
2 -5 66 0
7 -5 75 0
7 -5 95 0
5 -4 -108 0
2 -4 -69 0
8 -4 -43 0
4 -4 -20 0
2 -4 23 0
6 -4 24 0
5 -4 46 0
8 -4 50 0
5 -4 58 0
4 -4 61 0
6 -4 62 0
7 -4 68 0
4 -3 -111 0
7 -3 -101 0
2 -3 -76 0
8 -3 -72 0
8 -3 -62 0
3 -3 -60 0
5 -3 -10 0
8 -3 4 0
9 -3 5 0
2 -3 10 0
9 -3 21 0
8 -3 22 0
8 -3 36 0
6 -3 45 0
7 -3 66 0
6 -3 79 0
6 -3 83 0
4 -3 110 0
3 -3 111 0
1 -2 -116 0
6 -2 -95 0
9 -2 -85 0
5 -2 -45 0
6 -2 -44 0
6 -2 -18 0
8 -2 -14 0
5 -2 -7 0
10 -2 55 0
2 -2 77 0
10 -2 92 0
6 -2 95 0
5 -1 -85 0
7 -1 -54 0
7 -1 -43 0
4 -1 -26 0
5 -1 -14 0
9 -1 20 0
8 -1 22 0
3 -1 31 0
9 -1 69 0
9 -1 78 0
2 -1 89 0
7 -1 102 0
7 -1 117 0
7 1 -60 0
4 1 -57 0
3 1 -37 0
3 1 9 0
7 1 12 0
5 1 48 0
4 1 107 0
3 1 114 0
4 2 -111 0
7 2 -86 0
8 2 13 0
9 2 19 0
5 2 36 0
3 2 54 0
8 2 88 0
6 2 108 0
3 3 -116 0
5 3 -115 0
2 3 -89 0
9 3 -69 0
2 3 -62 0
4 3 -61 0
5 3 -57 0
1 3 -17 0
2 3 -16 0
7 3 22 0
9 3 58 0
2 3 62 0
8 3 77 0
6 3 84 0
8 3 110 0
5 3 113 0
9 3 118 0
10 4 -117 0
8 4 -116 0
6 4 -113 0
5 4 -99 0
1 4 -93 0
8 4 -80 0
8 4 -40 0
7 4 -9 0
6 4 6 0
7 4 28 0
3 4 71 0
8 4 89 0
5 5 -88 0
8 5 -10 0
1 5 16 0
9 5 42 0
8 5 94 0
9 6 -117 0
10 6 -111 0
3 6 -104 0
4 6 -101 0
10 6 -100 0
4 6 -92 0
1 6 -52 0
8 6 -41 0
5 6 -32 0
9 6 -29 0
4 6 -11 0
3 6 55 0
4 6 56 0
3 7 -94 0
3 7 -74 0
2 7 -51 0
9 7 -47 0
6 7 -23 0
2 7 -20 0
7 7 13 0
4 7 19 0
8 7 29 0
3 7 41 0
2 7 55 0
10 7 90 0
10 7 107 0
6 7 108 0
8 8 -62 0
10 8 -42 0
5 8 -25 0
6 8 -21 0
9 8 -12 0
5 8 14 0
8 8 17 0
4 8 41 0
5 8 46 0
2 8 55 0
4 8 97 0
3 8 108 0
6 9 -85 0
3 9 -59 0
6 9 -45 0
7 9 33 0
6 9 45 0
9 9 61 0
9 9 106 0
6 10 -120 0
7 10 -117 0
5 10 -107 0
7 10 -104 0
4 10 -85 0
9 10 -69 0
6 10 -38 0
5 10 -34 0
9 10 -30 0
6 10 41 0
5 10 76 0
5 10 79 0
3 10 87 0
5 10 103 0
9 11 -120 0
9 11 -116 0
5 11 -114 0
4 11 -109 0
7 11 -102 0
7 11 -81 0
8 11 -44 0
8 11 -14 0
1 11 -12 0
10 11 14 0
4 11 18 0
3 11 23 0
6 11 51 0
1 11 67 0
7 11 74 0
5 11 97 0
9 12 -111 0
3 12 -92 0
2 12 -76 0
5 12 -73 0
10 12 -66 0
4 12 -57 0
3 12 38 0
6 12 59 0
9 12 77 0
3 12 92 0
1 13 -78 0
4 13 -60 0
7 13 -32 0
3 13 -31 0
8 13 -23 0
6 13 38 0
2 13 57 0
3 13 76 0
10 13 101 0
8 14 -100 0
9 14 -95 0
7 14 -85 0
6 14 -79 0
9 14 -26 0
7 14 -18 0
8 14 19 0
1 14 26 0
3 14 57 0
9 14 64 0
8 14 96 0
7 15 -69 0
8 15 -68 0
1 15 -47 0
7 15 35 0
2 15 65 0
10 15 92 0
2 15 102 0
5 15 105 0
5 16 -90 0
10 16 -61 0
7 16 -53 0
6 16 -50 0
3 16 -29 0
4 16 -26 0
8 16 -25 0
1 16 -21 0
9 16 22 0
9 16 26 0
3 16 38 0
9 16 44 0
7 16 45 0
2 16 68 0
6 17 -104 0
2 17 -99 0
10 17 -73 0
3 17 -23 0
9 17 27 0
1 17 41 0
5 17 53 0
8 17 106 0
8 18 -109 0
2 18 -90 0
6 18 -46 0
8 18 -42 0
9 18 -20 0
7 18 35 0
8 18 61 0
9 18 69 0
2 18 72 0
3 18 80 0
9 18 108 0
8 18 112 0
8 18 116 0
2 19 -113 0
2 19 -49 0
6 19 -46 0
3 19 -37 0
10 19 -27 0
5 19 -26 0
5 19 -20 0
8 19 39 0
1 19 51 0
6 19 84 0
5 19 119 0
2 20 -62 0
5 20 -47 0
7 20 -45 0
2 20 -21 0
5 20 45 0
2 20 68 0
9 20 86 0
3 20 94 0
3 21 -117 0
5 21 -104 0
1 21 -65 0
2 21 -59 0
2 21 -51 0
8 21 -24 0
1 21 38 0
3 21 43 0
1 21 81 0
9 21 112 0
1 22 -120 0
8 22 -117 0
2 22 -113 0
2 22 -107 0
4 22 36 0
4 22 45 0
1 22 60 0
7 22 62 0
7 22 86 0
9 22 113 0
7 22 116 0
3 22 119 0
3 23 -120 0
9 23 -87 0
7 23 -77 0
9 23 -71 0
9 23 -52 0
3 23 -51 0
2 23 -49 0
8 23 -35 0
5 23 37 0
4 23 38 0
3 23 39 0
5 23 40 0
5 23 44 0
4 23 57 0
3 23 80 0
5 23 86 0
6 23 100 0
3 24 -104 0
5 24 -75 0
7 24 -64 0
1 24 -54 0
5 24 -48 0
7 24 48 0
4 24 57 0
8 24 72 0
8 24 80 0
10 24 81 0
6 24 82 0
7 24 115 0
7 25 -43 0
8 25 -34 0
9 25 -28 0
6 25 65 0
5 25 66 0
9 25 73 0
5 25 81 0
7 25 92 0
9 25 103 0
3 25 119 0
2 26 -98 0
3 26 -72 0
5 26 -50 0
7 26 -47 0
7 26 -34 0
8 26 52 0
9 26 53 0
2 26 80 0
5 26 82 0
2 26 99 0
6 26 117 0
1 27 -110 0
2 27 -79 0
1 27 43 0
8 27 82 0
5 27 84 0
9 27 91 0
6 27 94 0
4 27 118 0
4 28 -74 0
2 28 -65 0
1 28 -48 0
2 28 -47 0
1 28 31 0
6 28 40 0
6 28 98 0
9 28 99 0
1 28 110 0
3 28 112 0
8 29 -99 0
3 29 -92 0
4 29 -88 0
1 29 -87 0
8 29 -74 0
10 29 -45 0
7 29 35 0
6 29 66 0
9 29 70 0
8 29 112 0
10 30 -98 0
9 30 -84 0
4 30 -56 0
10 30 -54 0
1 30 44 0
5 30 51 0
8 30 62 0
5 30 94 0
3 31 -98 0
3 31 -73 0
8 31 -72 0
6 31 -45 0
4 31 34 0
9 31 40 0
7 31 53 0
5 31 96 0
5 32 -99 0
3 32 -69 0
4 32 -48 0
5 32 38 0
5 32 44 0
2 32 69 0
7 32 107 0
9 32 115 0
2 32 116 0
5 32 119 0
9 33 -79 0
8 33 38 0
1 33 44 0
7 33 75 0
6 33 85 0
10 33 87 0
7 34 -116 0
9 34 -98 0
9 34 -58 0
7 34 -39 0
4 34 48 0
7 34 72 0
2 34 80 0
6 34 88 0
9 34 101 0
9 35 -110 0
2 35 -102 0
3 35 -76 0
8 35 46 0
8 35 48 0
7 35 54 0
3 35 67 0
2 35 100 0
9 36 -107 0
7 36 -102 0
6 36 -77 0
1 36 -59 0
4 36 62 0
5 36 66 0
2 36 72 0
8 36 92 0
3 36 105 0
8 36 118 0
9 36 119 0
9 37 -119 0
4 37 -117 0
8 37 -58 0
6 37 -38 0
4 37 72 0
7 37 77 0
3 37 88 0
7 37 98 0
4 37 117 0
4 38 -116 0
3 38 -86 0
3 38 -70 0
3 38 -69 0
4 38 -56 0
6 38 45 0
1 39 -104 0
3 39 -99 0
3 39 -98 0
3 39 -75 0
3 39 -57 0
2 39 72 0
9 39 87 0
8 39 101 0
2 39 109 0
4 40 -111 0
3 40 -109 0
3 40 -105 0
2 40 -98 0
5 40 -89 0
1 40 -88 0
10 40 56 0
4 40 63 0
5 41 -100 0
8 41 -44 0
9 41 44 0
7 41 55 0
5 41 67 0
2 41 74 0
4 41 98 0
9 42 -107 0
5 42 -96 0
6 42 -94 0
2 42 -52 0
7 42 50 0
9 42 79 0
7 42 84 0
7 42 100 0
1 42 111 0
8 42 116 0
10 43 -116 0
3 43 -101 0
9 43 44 0
9 43 47 0
1 43 67 0
1 43 85 0
3 44 -118 0
3 44 -99 0
3 44 -97 0
4 44 -90 0
7 44 -88 0
3 44 -70 0
3 44 -59 0
10 44 -54 0
7 44 -53 0
1 44 -49 0
9 44 64 0
4 44 116 0
5 45 -111 0
9 45 -91 0
7 45 -61 0
4 45 59 0
4 45 61 0
2 45 65 0
5 45 98 0
10 45 102 0
10 46 -69 0
1 46 -66 0
7 46 59 0
10 46 76 0
8 47 -92 0
7 47 -79 0
3 47 -75 0
7 47 -66 0
6 47 72 0
4 47 113 0
7 48 -97 0
8 48 -94 0
6 48 91 0
9 49 -88 0
1 49 -66 0
3 49 -52 0
3 49 -50 0
4 49 51 0
2 49 63 0
8 49 65 0
4 49 79 0
10 50 -113 0
2 50 -73 0
8 50 -68 0
9 50 -56 0
8 50 65 0
2 50 90 0
3 51 -74 0
9 51 -52 0
5 51 84 0
3 51 88 0
9 51 95 0
5 51 111 0
9 52 -118 0
9 52 -112 0
3 52 -79 0
6 52 73 0
2 52 74 0
10 52 84 0
2 52 95 0
5 53 -118 0
7 53 -102 0
9 53 -61 0
10 53 -55 0
7 53 60 0
9 53 66 0
2 53 88 0
8 53 100 0
3 53 120 0
3 54 -104 0
6 54 56 0
6 54 60 0
3 54 91 0
7 55 -99 0
4 55 -84 0
2 55 -77 0
5 55 -67 0
4 55 57 0
4 55 80 0
4 55 110 0
8 55 115 0
6 56 -89 0
3 56 -85 0
4 56 -78 0
4 56 -58 0
2 56 60 0
6 56 116 0
9 57 -93 0
3 57 -84 0
6 57 -76 0
1 57 -59 0
6 57 -58 0
3 58 -115 0
9 58 -104 0
6 58 -99 0
8 58 -83 0
8 58 -69 0
7 58 -68 0
7 58 61 0
10 58 68 0
10 58 74 0
3 58 93 0
5 58 103 0
3 58 108 0
9 58 116 0
8 59 -119 0
4 59 -110 0
5 59 -102 0
2 59 -97 0
7 59 -95 0
8 59 -91 0
10 59 -68 0
2 59 -60 0
10 59 85 0
3 59 98 0
6 59 105 0
1 60 -104 0
9 60 -103 0
5 60 -68 0
3 60 63 0
4 61 -120 0
5 61 -114 0
9 61 -102 0
6 61 -69 0
4 61 85 0
5 61 95 0
4 62 -81 0
2 62 -68 0
2 62 67 0
10 62 79 0
1 62 83 0
2 62 115 0
3 63 -108 0
6 63 -87 0
4 63 -77 0
2 63 -70 0
4 63 65 0
6 63 75 0
6 63 78 0
5 63 88 0
3 64 -105 0
4 64 -100 0
5 64 -85 0
5 64 -66 0
4 64 75 0
8 64 102 0
9 65 -118 0
4 65 -108 0
6 65 -95 0
4 65 -92 0
6 65 -79 0
9 65 -72 0
9 65 107 0
5 66 -106 0
5 66 -99 0
2 66 -93 0
8 66 -90 0
9 66 -73 0
3 66 83 0
9 66 111 0
9 67 -114 0
4 67 104 0
10 67 105 0
1 67 118 0
9 68 99 0
3 68 104 0
3 68 117 0
2 69 -113 0
9 69 -108 0
8 69 -106 0
7 69 -76 0
2 70 -106 0
1 70 -93 0
2 70 -72 0
6 70 73 0
4 70 95 0
8 70 96 0
5 71 -107 0
7 71 -102 0
4 71 95 0
9 71 101 0
3 72 -108 0
4 72 93 0
8 72 118 0
6 72 119 0
8 73 -107 0
9 73 -97 0
4 73 -77 0
6 73 76 0
2 73 100 0
4 73 101 0
5 74 -114 0
5 74 -86 0
3 74 -77 0
5 74 89 0
3 74 100 0
6 74 103 0
7 75 -116 0
5 75 -109 0
5 75 92 0
5 75 99 0
1 75 114 0
6 76 -120 0
5 76 -103 0
2 76 -96 0
2 76 -94 0
8 76 89 0
9 77 -98 0
6 77 -91 0
4 78 -82 0
4 78 89 0
5 78 109 0
6 79 -107 0
6 79 109 0
3 79 112 0
2 80 -119 0
4 80 -116 0
2 80 -113 0
6 80 -107 0
9 80 -105 0
3 80 -85 0
8 80 85 0
5 80 88 0
7 80 98 0
2 80 118 0
9 81 -111 0
10 81 -86 0
7 81 84 0
6 81 85 0
4 81 86 0
1 81 92 0
10 81 94 0
5 82 -112 0
6 82 -103 0
5 82 -100 0
6 82 -93 0
7 82 -86 0
2 82 91 0
5 82 100 0
4 83 -108 0
6 83 -89 0
8 83 92 0
8 83 120 0
2 84 -113 0
4 84 -109 0
1 84 85 0
3 84 100 0
7 85 -99 0
2 85 -95 0
7 85 97 0
7 85 104 0
4 86 -119 0
6 86 -112 0
1 86 -106 0
1 86 88 0
6 86 108 0
9 87 -115 0
1 88 -118 0
3 88 -111 0
6 88 -95 0
4 88 101 0
3 88 105 0
5 88 115 0
8 89 -119 0
9 89 -117 0
9 89 -95 0
4 89 98 0
6 89 100 0
1 90 -117 0
9 90 91 0
9 90 94 0
6 90 104 0
7 90 111 0
7 91 -97 0
6 91 -95 0
1 91 -92 0
7 91 93 0
8 91 105 0
8 92 -101 0
8 92 99 0
6 92 103 0
4 92 106 0
2 92 115 0
2 93 -120 0
5 93 -111 0
3 93 101 0
7 94 -113 0
4 95 -105 0
3 95 98 0
9 96 -116 0
9 96 112 0
6 96 114 0
2 98 -108 0
4 98 110 0
5 99 -104 0
1 99 120 0
3 100 108 0
8 101 -106 0
6 101 -102 0
3 102 109 0
7 103 -119 0
5 103 -118 0
8 103 -113 0
4 105 -110 0
1 105 111 0
4 105 120 0
4 106 108 0
7 108 -113 0
3 109 110 0
2 109 120 0
5 110 -111 0
7 111 -115 0
5 111 115 0
7 113 116 0
8 115 120 0
